************************************************************************
file with basedata            : ma14_.bas
initial value random generator: 1251177041
************************************************************************
projects                      :  1
jobs (incl. supersource/sink ):  12
horizon                       :  87
RESOURCES
  - renewable                 :  2   R
  - nonrenewable              :  2   N
  - doubly constrained        :  0   D
************************************************************************
PROJECT INFORMATION:
pronr.  #jobs rel.date duedate tardcost  MPM-Time
    1     10      0       12        1       12
************************************************************************
PRECEDENCE RELATIONS:
jobnr.    #modes  #successors   successors
   1        1          3           2   3   4
   2        3          3           5   6   7
   3        3          3           5   8  10
   4        3          1           7
   5        3          2           9  11
   6        3          1          10
   7        3          1          11
   8        3          1           9
   9        3          1          12
  10        3          1          12
  11        3          1          12
  12        1          0        
************************************************************************
REQUESTS/DURATIONS:
jobnr. mode duration  R 1  R 2  N 1  N 2
------------------------------------------------------------------------
  1      1     0       0    0    0    0
  2      1     1       9    3    7    6
         2     7       9    2    7    6
         3     8       9    1    4    1
  3      1     5       3    6   10    6
         2    10       2    5   10    6
         3    10       2    6   10    4
  4      1     5      10    8    2    8
         2     6       5    6    1    7
         3     9       3    4    1    7
  5      1     1       8    8    3    5
         2     2       5    7    2    5
         3    10       4    7    2    4
  6      1     3       5    7    9    8
         2     4       4    5    7    7
         3     8       4    4    5    6
  7      1     2       2    7    6    7
         2     4       2    4    6    3
         3     4       2    3    6    5
  8      1     1       6    8    6    6
         2     9       5    8    4    5
         3    10       4    8    2    5
  9      1     4       5    8    9    7
         2     6       5    7    7    4
         3     9       5    5    3    1
 10      1     1      10   10    9    7
         2     8       9    7    8    7
         3     9       9    6    6    6
 11      1     5       7    5    6    4
         2     6       6    5    5    4
         3    10       4    5    3    4
 12      1     0       0    0    0    0
************************************************************************
RESOURCEAVAILABILITIES:
  R 1  R 2  N 1  N 2
   26   33   47   46
************************************************************************
MAXIMAL LAGS:
from  to  type  delay
    1   12   ES      0
    1    2   ES      0
    2   12   ES      0
    1    3   ES      0
    3   12   ES      0
    1    4   ES      0
    4   12   ES      0
    1    5   ES      0
    5   12   ES      0
    1    6   ES      0
    6   12   ES      0
    1    7   ES      0
    7   12   ES      0
    1    8   ES      0
    8   12   ES      0
    1    9   ES      0
    9   12   ES      0
    1   10   ES      0
   10   12   ES      0
    1   11   ES      0
   11   12   ES      0
    1   12   ES      0
    2    5   SS     11
    2    5   SE     -8
    2    5   ES      2
    2    5   EE      7
    2    6   SS     10
    2    6   SE    -11
    2    6   ES      9
    2    6   EE     10
    2    7   SS     -2
    2    7   SE    -11
    2    7   ES     -3
    2    7   EE      9
    3    5   SS      8
    3    5   SE    -11
    3    5   ES     -3
    3    5   EE     -5
    3    8   SS     -6
    3    8   SE     -6
    3    8   ES     -6
    3    8   EE     12
    3   10   SS     -1
    3   10   SE     -6
    3   10   ES      4
    3   10   EE     -4
    4    7   SS      6
    4    7   SE     -2
    4    7   ES     10
    4    7   EE     -9
    5    9   SS      0
    5    9   SE     11
    5    9   ES     -5
    5    9   EE     -8
    5   11   SS     -9
    5   11   SE    -10
    5   11   ES     -9
    5   11   EE     10
    6   10   SS      7
    6   10   SE      2
    6   10   ES      4
    6   10   EE      2
    7   11   SS     11
    7   11   SE     -9
    7   11   ES      5
    7   11   EE    -11
    8    9   SS      7
    8    9   SE     -6
    8    9   ES     -5
    8    9   EE      6
************************************************************************
